
(set-option :produce-models true)
(declare-fun certoraTmp_1 () (_ BitVec 256))
(declare-fun d_0 () (_ BitVec 256))
(declare-fun certoraMaskedTmp_1 () (_ BitVec 256))
(declare-fun certoraMaskedTmp_2 () Bool)
(declare-fun certoraAssumeL1_1 () (_ BitVec 256))
(declare-fun a_0 () (_ BitVec 256))
(declare-fun certoraAssumeL2_1 () (_ BitVec 256))
(declare-fun b_0 () (_ BitVec 256))
(declare-fun certoraAssumeL3_1 () (_ BitVec 256))
(declare-fun c_0 () (_ BitVec 256))
(declare-fun certoraAssumeL4_1 () (_ BitVec 256))
(declare-fun lastHasThrown_1 () Bool)
(declare-fun certoraTmp_2 () (_ BitVec 256))
(declare-fun caller@4_0 () (_ BitVec 256))
(declare-fun certoraMaskedTmp_3 () (_ BitVec 256))
(declare-fun certoraMaskedTmp_4 () Bool)
(declare-fun certoraTmp_3 () Bool)
(declare-fun e.msg.sender_0 () (_ BitVec 256))
(declare-fun certoraTmp_4 () (_ BitVec 256))
(declare-fun callvalue@4_0 () (_ BitVec 256))
(declare-fun certoraTmp_5 () Bool)
(declare-fun e.msg.value_0 () (_ BitVec 256))
(declare-fun certoraTmp_6 () (_ BitVec 256))
(declare-fun address@4_0 () (_ BitVec 256))
(declare-fun certoraMaskedTmp_5 () (_ BitVec 256))
(declare-fun certoraMaskedTmp_6 () Bool)
(declare-fun certoraTmp_7 () Bool)
(declare-fun e.msg.address_0 () (_ BitVec 256))
(declare-fun certoraTmp_8 () (_ BitVec 256))
(declare-fun origin_0 () (_ BitVec 256))
(declare-fun certoraMaskedTmp_7 () (_ BitVec 256))
(declare-fun certoraMaskedTmp_8 () Bool)
(declare-fun certoraTmp_9 () Bool)
(declare-fun e.tx.origin_0 () (_ BitVec 256))
(declare-fun certoraTmp_10 () (_ BitVec 256))
(declare-fun blockNumber@4_0 () (_ BitVec 256))
(declare-fun certoraTmp_11 () Bool)
(declare-fun e.block.number_0 () (_ BitVec 256))
(declare-fun sizeCalldata_1 () (_ BitVec 256))
(declare-fun calldatasize@4_0 () (_ BitVec 256))
(declare-fun tmpSizeCalldataLimitCheck_1 () Bool)
(declare-fun certoraInput_1 () (_ BitVec 256))
(declare-fun calldata@4_0 () (Array (_ BitVec 256) (_ BitVec 8)))
(declare-fun certoraInput_2 () (_ BitVec 256))
(declare-fun certoraIsMethod_1 () Bool)
(declare-fun thisAddressTmp_1 () (_ BitVec 256))
(declare-fun thisAddressTmpBool_1 () Bool)
(declare-fun tmp@4_1 () (_ BitVec 256))
(declare-fun maskedTmp@4_1 () (_ BitVec 256))
(declare-fun maskedTmp@4_2 () Bool)
(declare-fun tmp@4_2 () (_ BitVec 256))
(declare-fun maskedTmp@4_3 () (_ BitVec 256))
(declare-fun maskedTmp@4_4 () Bool)
(declare-fun M@4_1 () (Array (_ BitVec 256) (_ BitVec 256)))
(declare-fun M@4_0 () (Array (_ BitVec 256) (_ BitVec 256)))
(declare-fun L1013@4_2 () (_ BitVec 256))
(declare-fun L1021@4_2 () (_ BitVec 256))
(declare-fun L1018@4_2 () (_ BitVec 256))
(declare-fun L1020@4_3 () (_ BitVec 256))
(declare-fun M@4_2 () (Array (_ BitVec 256) (_ BitVec 256)))
(declare-fun M@4_3 () (Array (_ BitVec 256) (_ BitVec 256)))
(declare-fun L1014@4_5 () (_ BitVec 256))
(declare-fun L1012@4_4 () (_ BitVec 256))
(declare-fun L1009@4_1 () (_ BitVec 256))
(declare-fun L1006@4_1 () (_ BitVec 256))
(declare-fun L1007@4_1 () (_ BitVec 256))
(declare-fun L1010@4_2 () (_ BitVec 256))
(declare-fun L1013@4_8 () (_ BitVec 256))
(declare-fun M@4_4 () (Array (_ BitVec 256) (_ BitVec 256)))
(declare-fun M@4_5 () (Array (_ BitVec 256) (_ BitVec 256)))
(declare-fun lastReverted_1 () Bool)
(declare-fun certoraOutVar2_2 () (_ BitVec 256))
(declare-fun certoraAssumeR3_1 () (_ BitVec 256))
(declare-fun certoraAssume1_1 () Bool)
(declare-fun certoraAssume2_1 () Bool)
(declare-fun certoraAssume3_1 () Bool)
(declare-fun certoraAssume4_1 () Bool)
(declare-fun certoraAssume_1 () Bool)
(declare-fun certora_certoraAssert_0t1t1t1_1 () (_ BitVec 256))
(declare-fun certora_certoraAssert_0t1t1t2_1 () (_ BitVec 256))
(declare-fun certora_certoraAssert_0t1t1_1 () Bool)
(declare-fun certora_certoraAssert_0t1t2t1_1 () (_ BitVec 256))
(declare-fun certora_certoraAssert_0t1t2t2_1 () (_ BitVec 256))
(declare-fun certora_certoraAssert_0t1t2_1 () Bool)
(declare-fun certora_certoraAssert_0t1_1 () Bool)
(declare-fun certora_certoraAssert_0t2t1_1 () (_ BitVec 256))
(declare-fun certora_certoraAssert_0t2t2_1 () (_ BitVec 256))
(declare-fun certora_certoraAssert_0t2_1 () Bool)
(declare-fun certoraAssert_0_1 () Bool)
(declare-fun OK_0_0_0_0_0_0_0 () Bool)
(declare-fun OK_0_0_0_0_4_0_0 () Bool)
(declare-fun OK_62_0_0_0_0_0_0 () Bool)

(assert (not (=> (and (= OK_0_0_0_0_0_0_0 (=> (= certoraTmp_1 d_0) (=> (= certoraMaskedTmp_1 (bvand certoraTmp_1 (_ bv115792089237316195423570985007226406215939081747436879206741300988257197096960 256))) (=> (= certoraMaskedTmp_2 (= certoraMaskedTmp_1 (_ bv0 256))) (=> certoraMaskedTmp_2 (=> (= certoraAssumeL1_1 a_0) (=> (= certoraAssumeL2_1 b_0) (=> (= certoraAssumeL3_1 c_0) (=> (= certoraAssumeL4_1 d_0) OK_0_0_0_0_4_0_0))))))))) (= OK_0_0_0_0_4_0_0 (=> (= lastHasThrown_1 false) (=> (= certoraTmp_2 caller@4_0) (=> (= certoraMaskedTmp_3 (bvand certoraTmp_2 (_ bv115792089237316195423570985007226406215939081747436879206741300988257197096960 256))) (=> (= certoraMaskedTmp_4 (= certoraMaskedTmp_3 (_ bv0 256))) (=> certoraMaskedTmp_4 (=> (= certoraTmp_3 (= certoraTmp_2 e.msg.sender_0)) (=> certoraTmp_3 (=> (= certoraTmp_4 callvalue@4_0) (=> (= certoraTmp_5 (= certoraTmp_4 e.msg.value_0)) (=> certoraTmp_5 (=> (= certoraTmp_6 address@4_0) (=> (= certoraMaskedTmp_5 (bvand certoraTmp_6 (_ bv115792089237316195423570985007226406215939081747436879206741300988257197096960 256))) (=> (= certoraMaskedTmp_6 (= certoraMaskedTmp_5 (_ bv0 256))) (=> certoraMaskedTmp_6 (=> (= certoraTmp_7 (= certoraTmp_6 e.msg.address_0)) (=> certoraTmp_7 (=> (= certoraTmp_8 origin_0) (=> (= certoraMaskedTmp_7 (bvand certoraTmp_8 (_ bv115792089237316195423570985007226406215939081747436879206741300988257197096960 256))) (=> (= certoraMaskedTmp_8 (= certoraMaskedTmp_7 (_ bv0 256))) (=> certoraMaskedTmp_8 (=> (= certoraTmp_9 (= certoraTmp_8 e.tx.origin_0)) (=> certoraTmp_9 (=> (= certoraTmp_10 blockNumber@4_0) (=> (= certoraTmp_11 (= certoraTmp_10 e.block.number_0)) (=> certoraTmp_11 (=> (= sizeCalldata_1 calldatasize@4_0) (=> (= tmpSizeCalldataLimitCheck_1 (bvugt sizeCalldata_1 (_ bv100 256))) (=> tmpSizeCalldataLimitCheck_1 (=> (= certoraInput_1 (bvxor (bvxor (bvxor (bvxor (bvxor (bvxor (bvxor (bvxor (bvxor (bvxor (bvxor (bvxor (bvxor (bvxor (bvxor (bvxor (bvxor (bvxor (bvxor (bvxor (bvxor (bvxor (bvxor (bvxor (bvxor (bvxor (bvxor (bvxor (bvxor (bvxor (bvxor (bvxor (_ bv0 256) (bvmul ((_ zero_extend 248) (select calldata@4_0 (bvadd (_ bv0 256) (_ bv0 256)))) (_ bv452312848583266388373324160190187140051835877600158453279131187530910662656 256))) (bvmul ((_ zero_extend 248) (select calldata@4_0 (bvadd (_ bv0 256) (_ bv1 256)))) (_ bv1766847064778384329583297500742918515827483896875618958121606201292619776 256))) (bvmul ((_ zero_extend 248) (select calldata@4_0 (bvadd (_ bv0 256) (_ bv2 256)))) (_ bv6901746346790563787434755862277025452451108972170386555162524223799296 256))) (bvmul ((_ zero_extend 248) (select calldata@4_0 (bvadd (_ bv0 256) (_ bv3 256)))) (_ bv26959946667150639794667015087019630673637144422540572481103610249216 256))) (bvmul ((_ zero_extend 248) (select calldata@4_0 (bvadd (_ bv0 256) (_ bv4 256)))) (_ bv105312291668557186697918027683670432318895095400549111254310977536 256))) (bvmul ((_ zero_extend 248) (select calldata@4_0 (bvadd (_ bv0 256) (_ bv5 256)))) (_ bv411376139330301510538742295639337626245683966408394965837152256 256))) (bvmul ((_ zero_extend 248) (select calldata@4_0 (bvadd (_ bv0 256) (_ bv6 256)))) (_ bv1606938044258990275541962092341162602522202993782792835301376 256))) (bvmul ((_ zero_extend 248) (select calldata@4_0 (bvadd (_ bv0 256) (_ bv7 256)))) (_ bv6277101735386680763835789423207666416102355444464034512896 256))) (bvmul ((_ zero_extend 248) (select calldata@4_0 (bvadd (_ bv0 256) (_ bv8 256)))) (_ bv24519928653854221733733552434404946937899825954937634816 256))) (bvmul ((_ zero_extend 248) (select calldata@4_0 (bvadd (_ bv0 256) (_ bv9 256)))) (_ bv95780971304118053647396689196894323976171195136475136 256))) (bvmul ((_ zero_extend 248) (select calldata@4_0 (bvadd (_ bv0 256) (_ bv10 256)))) (_ bv374144419156711147060143317175368453031918731001856 256))) (bvmul ((_ zero_extend 248) (select calldata@4_0 (bvadd (_ bv0 256) (_ bv11 256)))) (_ bv1461501637330902918203684832716283019655932542976 256))) (bvmul ((_ zero_extend 248) (select calldata@4_0 (bvadd (_ bv0 256) (_ bv12 256)))) (_ bv5708990770823839524233143877797980545530986496 256))) (bvmul ((_ zero_extend 248) (select calldata@4_0 (bvadd (_ bv0 256) (_ bv13 256)))) (_ bv22300745198530623141535718272648361505980416 256))) (bvmul ((_ zero_extend 248) (select calldata@4_0 (bvadd (_ bv0 256) (_ bv14 256)))) (_ bv87112285931760246646623899502532662132736 256))) (bvmul ((_ zero_extend 248) (select calldata@4_0 (bvadd (_ bv0 256) (_ bv15 256)))) (_ bv340282366920938463463374607431768211456 256))) (bvmul ((_ zero_extend 248) (select calldata@4_0 (bvadd (_ bv0 256) (_ bv16 256)))) (_ bv1329227995784915872903807060280344576 256))) (bvmul ((_ zero_extend 248) (select calldata@4_0 (bvadd (_ bv0 256) (_ bv17 256)))) (_ bv5192296858534827628530496329220096 256))) (bvmul ((_ zero_extend 248) (select calldata@4_0 (bvadd (_ bv0 256) (_ bv18 256)))) (_ bv20282409603651670423947251286016 256))) (bvmul ((_ zero_extend 248) (select calldata@4_0 (bvadd (_ bv0 256) (_ bv19 256)))) (_ bv79228162514264337593543950336 256))) (bvmul ((_ zero_extend 248) (select calldata@4_0 (bvadd (_ bv0 256) (_ bv20 256)))) (_ bv309485009821345068724781056 256))) (bvmul ((_ zero_extend 248) (select calldata@4_0 (bvadd (_ bv0 256) (_ bv21 256)))) (_ bv1208925819614629174706176 256))) (bvmul ((_ zero_extend 248) (select calldata@4_0 (bvadd (_ bv0 256) (_ bv22 256)))) (_ bv4722366482869645213696 256))) (bvmul ((_ zero_extend 248) (select calldata@4_0 (bvadd (_ bv0 256) (_ bv23 256)))) (_ bv18446744073709551616 256))) (bvmul ((_ zero_extend 248) (select calldata@4_0 (bvadd (_ bv0 256) (_ bv24 256)))) (_ bv72057594037927936 256))) (bvmul ((_ zero_extend 248) (select calldata@4_0 (bvadd (_ bv0 256) (_ bv25 256)))) (_ bv281474976710656 256))) (bvmul ((_ zero_extend 248) (select calldata@4_0 (bvadd (_ bv0 256) (_ bv26 256)))) (_ bv1099511627776 256))) (bvmul ((_ zero_extend 248) (select calldata@4_0 (bvadd (_ bv0 256) (_ bv27 256)))) (_ bv4294967296 256))) (bvmul ((_ zero_extend 248) (select calldata@4_0 (bvadd (_ bv0 256) (_ bv28 256)))) (_ bv16777216 256))) (bvmul ((_ zero_extend 248) (select calldata@4_0 (bvadd (_ bv0 256) (_ bv29 256)))) (_ bv65536 256))) (bvmul ((_ zero_extend 248) (select calldata@4_0 (bvadd (_ bv0 256) (_ bv30 256)))) (_ bv256 256))) (bvmul ((_ zero_extend 248) (select calldata@4_0 (bvadd (_ bv0 256) (_ bv31 256)))) (_ bv1 256)))) (=> (= certoraInput_2 (bvudiv certoraInput_1 (_ bv26959946667150639794667015087019630673637144422540572481103610249216 256))) (=> (= certoraIsMethod_1 (= certoraInput_2 (_ bv1893797018 256))) (=> certoraIsMethod_1 (=> (= thisAddressTmp_1 address@4_0) (=> (= thisAddressTmpBool_1 (= thisAddressTmp_1 (_ bv11259375 256))) (=> thisAddressTmpBool_1 (=> (= tmp@4_1 caller@4_0) (=> (= maskedTmp@4_1 (bvand tmp@4_1 (_ bv115792089237316195423570985007226406215939081747436879206741300988257197096960 256))) (=> (= maskedTmp@4_2 (= maskedTmp@4_1 (_ bv0 256))) (=> maskedTmp@4_2 (=> (= tmp@4_2 address@4_0) (=> (= maskedTmp@4_3 (bvand tmp@4_2 (_ bv115792089237316195423570985007226406215939081747436879206741300988257197096960 256))) (=> (= maskedTmp@4_4 (= maskedTmp@4_3 (_ bv0 256))) (=> maskedTmp@4_4 (=> (= M@4_1 (store M@4_0 (_ bv64 256) (_ bv128 256))) (=> (= L1013@4_2 caller@4_0) (=> (= L1021@4_2 L1013@4_2) (=> (= L1018@4_2 L1021@4_2) (=> (= L1020@4_3 L1018@4_2) (=> (= M@4_2 (store M@4_1 (_ bv128 256) (_ bv3 256))) (=> (= M@4_3 (store M@4_2 (_ bv160 256) (_ bv3 256))) (=> (= L1014@4_5 L1020@4_3) (=> (= L1012@4_4 L1014@4_5) (=> (= L1009@4_1 L1012@4_4) (=> (= L1006@4_1 L1009@4_1) (=> (= L1007@4_1 (bvand L1006@4_1 (_ bv1461501637330902918203684832716283019655932542975 256))) (=> (= L1010@4_2 L1007@4_1) (=> (= L1013@4_8 L1010@4_2) (=> (= M@4_4 (store M@4_3 (_ bv192 256) L1013@4_8)) (=> (= M@4_5 (store M@4_4 (_ bv224 256) (_ bv3 256))) (=> (= lastReverted_1 false) (=> (= certoraOutVar2_2 (select M@4_5 (_ bv192 256))) OK_62_0_0_0_0_0_0)))))))))))))))))))))))))))))))))))))))))))))))))))))))))))))) (= OK_62_0_0_0_0_0_0 (=> (= certoraAssumeR3_1 certoraOutVar2_2) (=> (not lastReverted_1) (=> (not lastHasThrown_1) (=> (= certoraAssume1_1 (= certoraAssumeL1_1 (_ bv3 256))) (=> (= certoraAssume2_1 (= certoraAssumeL2_1 (_ bv3 256))) (=> (= certoraAssume3_1 (= certoraAssumeL3_1 certoraAssumeR3_1)) (=> (= certoraAssume4_1 (= certoraAssumeL4_1 (_ bv3 256))) (=> (= certoraAssume_1 (and certoraAssume1_1 certoraAssume2_1 certoraAssume3_1 certoraAssume4_1)) (=> certoraAssume_1 (=> (= certora_certoraAssert_0t1t1t1_1 a_0) (=> (= certora_certoraAssert_0t1t1t2_1 b_0) (=> (= certora_certoraAssert_0t1t1_1 (= certora_certoraAssert_0t1t1t1_1 certora_certoraAssert_0t1t1t2_1)) (=> (= certora_certoraAssert_0t1t2t1_1 a_0) (=> (= certora_certoraAssert_0t1t2t2_1 c_0) (=> (= certora_certoraAssert_0t1t2_1 (= certora_certoraAssert_0t1t2t1_1 certora_certoraAssert_0t1t2t2_1)) (=> (= certora_certoraAssert_0t1_1 (and certora_certoraAssert_0t1t1_1 certora_certoraAssert_0t1t2_1)) (=> (= certora_certoraAssert_0t2t1_1 d_0) (=> (= certora_certoraAssert_0t2t2_1 e.msg.sender_0) (=> (= certora_certoraAssert_0t2_1 (= certora_certoraAssert_0t2t1_1 certora_certoraAssert_0t2t2_1)) (=> (= certoraAssert_0_1 (and certora_certoraAssert_0t1_1 certora_certoraAssert_0t2_1)) (and certoraAssert_0_1 true))))))))))))))))))))))) OK_0_0_0_0_0_0_0)))
(check-sat)
(get-model)
